% clingo -c c=3 graph.lp color.lp
clingo version 5.4.0
Reading from graph.lp ...
Solving...
Answer: 1
color(1,1) color(2,3) color(3,1) color(4,2)
SATISFIABLE

Models       : 1+
Calls        : 1
CPU Time     : 0.002s
